% File represents an instance of a Composite Structure problem to be solved by a CP framework
% Created on 2025-03-26 10:41:20.135
T = 58;
n = 9;
m = 12;
edges = [(2, 1),
(5, 4),
(8, 7),
(2, 3),
(6, 5),
(9, 8),
(1, 4),
(7, 4),
(2, 5),
(8, 5),
(6, 3),
(9, 6)];
counts = [|6, 24, 6, 18,
|6, 26, 6, 18,
|6, 24, 6, 16,
|6, 22, 6, 16,
|6, 22, 6, 18,
|6, 24, 6, 18,
|6, 24, 6, 18,
|6, 24, 6, 20,
|6, 24, 6, 22|];
